pymatgen with grid density = 1350 / number of atoms
0
Gamma
6 6 4
