Zr2 O4
1.0
3.643811 0.000000 0.000000
0.000000 3.643811 0.000000
0.000000 0.000000 5.314560
Zr O
2 4
direct
0.000000 0.000000 0.000000 Zr
0.500000 0.500000 0.500000 Zr
0.500000 0.000000 0.193955 O
0.000000 0.500000 0.306045 O
0.000000 0.500000 0.806045 O
0.500000 0.000000 0.693955 O
